letting n =  10
letting blocks =  [[1, 1], [1, 2], [1, 4], [1, 5], [1, 7], [1, 8], [2, 1], [2, 2], [2, 5], [2, 6], [2, 8], [2, 10], [3, 3], [3, 5], [3, 6], [3, 8], [3, 9], [3, 10], [4, 1], [4, 3], [4, 4], [4, 5], [4, 7], [4, 10], [5, 2], [5, 3], [5, 7], [5, 8], [6, 2], [6, 4], [6, 6], [6, 9], [7, 1], [7, 3], [7, 5], [7, 8], [7, 9], [7, 10], [8, 1], [8, 3], [8, 4], [8, 7], [8, 8], [8, 9], [9, 4], [9, 5], [9, 6], [9, 10], [10, 2], [10, 3], [10, 4], [10, 6], [10, 7], [10, 10]]
